% demand
num_movements = 18;
loading_factor = [1100, 1350, 950, 800, 1000, 1350, 1400, 1150, 950, 1600, 1800, 800, 1150, 1350, 2000, 1850, 1600, 1900];
pickup_time = [0, 0, 0, 0, 0, 0, 1, 4, 4, 4, 4, 4, 5, 5, 5, 6, 8, 8];
delivery_time = [3, 3, 1, 4, 4, 4, 4, 5, 9, 5, 5, 5, 6, 6, 9, 7, 9, 10];

% transporter definition
total_capacity = 7000;
num_decks = 3;
capacity = [3000, 1000, 3000];

% ways out of decks
num_ways_out = 1;
paths_out = array3d(decks, ways_out, decks, [
% ways out of deck d1
2, 3, 0, 

% ways out of deck d2
3, 0, 0, 

% ways out of deck d3
0, 0, 0,	

]);

